100
32
16
7
14
22
9
27
32
27
28
27
23
19
6
1
19
28
18
9
8
6
1
9
8
1
18
4
3
3
2
1
1
17
1
1
1
2
1
2
2
16
1
3
17
4
1
1
4
6
1
1
4
1
24
6
9
17
10
2
3
2
2
4
3
17
2
3
1
7
1
4
2
2
1
2
1
6
23
1
1
2
1
2
2
2
17
1
1
1
2
1
1
1
1
3
2
2
1
17
1
2